% demand
num_movements = 23;
loading_factor = [2000, 850, 1350, 1200, 1050, 1400, 850, 1250, 850, 1500, 1150, 1800, 900, 1650, 2000, 1500, 1650, 1300, 950, 1300, 1150, 950, 1600];
pickup_time = [0, 1, 1, 1, 1, 3, 3, 3, 3, 3, 3, 5, 5, 5, 6, 6, 6, 8, 9, 9, 9, 9, 9];
delivery_time = [2, 2, 2, 2, 2, 6, 5, 6, 4, 5, 5, 9, 6, 6, 9, 8, 8, 9, 10, 10, 10, 10, 10];

% transporter definition
total_capacity = 7000;
num_decks = 3;
capacity = [3000, 1000, 3000];

% ways out of decks
num_ways_out = 1;
paths_out = array3d(decks, ways_out, decks, [
% ways out of deck d1
2, 3, 0, 

% ways out of deck d2
3, 0, 0, 

% ways out of deck d3
0, 0, 0,	

]);

